p cnf 965 2478
51 -698 -699 0
-51 698 0
-51 699 0
52 -51 -3 0
-52 51 0
-52 3 0
53 -700 -701 0
-53 700 0
-53 701 0
54 -53 -702 0
-54 53 0
-54 702 0
55 -703 -704 0
-55 703 0
-55 704 0
56 -8 -7 0
-56 8 0
-56 7 0
57 -56 -705 0
-57 56 0
-57 705 0
58 -706 -55 0
-58 706 0
-58 55 0
59 -707 -708 0
-59 707 0
-59 708 0
60 -59 -12 0
-60 59 0
-60 12 0
61 -709 -58 0
-61 709 0
-61 58 0
62 -13 -699 0
-62 13 0
-62 699 0
63 -62 -14 0
-63 62 0
-63 14 0
64 -710 -61 0
-64 710 0
-64 61 0
65 -711 -712 0
-65 711 0
-65 712 0
66 -65 -17 0
-66 65 0
-66 17 0
67 -713 -64 0
-67 713 0
-67 64 0
68 -18 -712 0
-68 18 0
-68 712 0
69 -68 -19 0
-69 68 0
-69 19 0
70 -714 -67 0
-70 714 0
-70 67 0
71 -20 -715 0
-71 20 0
-71 715 0
72 -71 -21 0
-72 71 0
-72 21 0
73 -716 -70 0
-73 716 0
-73 70 0
74 -17 -717 0
-74 17 0
-74 717 0
75 -74 -20 0
-75 74 0
-75 20 0
76 -718 -73 0
-76 718 0
-76 73 0
77 -4 -1 0
-77 4 0
-77 1 0
78 -77 -719 0
-78 77 0
-78 719 0
79 -720 -76 0
-79 720 0
-79 76 0
80 -23 -708 0
-80 23 0
-80 708 0
81 -80 -20 0
-81 80 0
-81 20 0
82 -721 -79 0
-82 721 0
-82 79 0
83 -25 -722 0
-83 25 0
-83 722 0
84 -83 -26 0
-84 83 0
-84 26 0
85 -723 -82 0
-85 723 0
-85 82 0
86 -724 -715 0
-86 724 0
-86 715 0
87 -86 -28 0
-87 86 0
-87 28 0
88 -725 -85 0
-88 725 0
-88 85 0
89 -30 -726 0
-89 30 0
-89 726 0
90 -89 -31 0
-90 89 0
-90 31 0
91 -727 -88 0
-91 727 0
-91 88 0
92 -728 -15 0
-92 728 0
-92 15 0
93 -92 -33 0
-93 92 0
-93 33 0
94 -729 -91 0
-94 729 0
-94 91 0
95 -730 -701 0
-95 730 0
-95 701 0
96 -95 -731 0
-96 95 0
-96 731 0
97 -732 -94 0
-97 732 0
-97 94 0
98 -733 -13 0
-98 733 0
-98 13 0
99 -98 -28 0
-99 98 0
-99 28 0
100 -734 -97 0
-100 734 0
-100 97 0
101 -37 -735 0
-101 37 0
-101 735 0
102 -101 -736 0
-102 101 0
-102 736 0
103 -737 -100 0
-103 737 0
-103 100 0
104 -715 -13 0
-104 715 0
-104 13 0
105 -104 -35 0
-105 104 0
-105 35 0
106 -738 -103 0
-106 738 0
-106 103 0
107 -739 -16 0
-107 739 0
-107 16 0
108 -107 -740 0
-108 107 0
-108 740 0
109 -741 -106 0
-109 741 0
-109 106 0
110 -36 -32 0
-110 36 0
-110 32 0
111 -110 -742 0
-111 110 0
-111 742 0
112 -743 -109 0
-112 743 0
-112 109 0
113 -744 -5 0
-113 744 0
-113 5 0
114 -113 -733 0
-114 113 0
-114 733 0
115 -745 -112 0
-115 745 0
-115 112 0
116 -39 -731 0
-116 39 0
-116 731 0
117 -116 -21 0
-117 116 0
-117 21 0
118 -746 -115 0
-118 746 0
-118 115 0
119 -747 -40 0
-119 747 0
-119 40 0
120 -119 -28 0
-120 119 0
-120 28 0
121 -748 -118 0
-121 748 0
-121 118 0
122 -724 -7 0
-122 724 0
-122 7 0
123 -122 -21 0
-123 122 0
-123 21 0
124 -749 -121 0
-124 749 0
-124 121 0
125 -750 -717 0
-125 750 0
-125 717 0
126 -125 -751 0
-126 125 0
-126 751 0
127 -752 -124 0
-127 752 0
-127 124 0
128 -753 -12 0
-128 753 0
-128 12 0
129 -128 -754 0
-129 128 0
-129 754 0
130 -755 -127 0
-130 755 0
-130 127 0
131 -44 -756 0
-131 44 0
-131 756 0
132 -131 -757 0
-132 131 0
-132 757 0
133 -758 -130 0
-133 758 0
-133 130 0
134 -747 -705 0
-134 747 0
-134 705 0
135 -134 -733 0
-135 134 0
-135 733 0
136 -759 -133 0
-136 759 0
-136 133 0
137 -13 -10 0
-137 13 0
-137 10 0
138 -137 -45 0
-138 137 0
-138 45 0
139 -760 -136 0
-139 760 0
-139 136 0
140 -40 -37 0
-140 40 0
-140 37 0
141 -140 -761 0
-141 140 0
-141 761 0
142 -762 -139 0
-142 762 0
-142 139 0
143 -763 -764 0
-143 763 0
-143 764 0
144 -143 -754 0
-144 143 0
-144 754 0
145 -765 -142 0
-145 765 0
-145 142 0
146 -42 -707 0
-146 42 0
-146 707 0
147 -146 -766 0
-147 146 0
-147 766 0
148 -767 -145 0
-148 767 0
-148 145 0
149 -761 -702 0
-149 761 0
-149 702 0
150 -149 -719 0
-150 149 0
-150 719 0
151 -768 -148 0
-151 768 0
-151 148 0
152 -46 -764 0
-152 46 0
-152 764 0
153 -152 -47 0
-153 152 0
-153 47 0
154 -769 -151 0
-154 769 0
-154 151 0
155 -761 -700 0
-155 761 0
-155 700 0
156 -155 -19 0
-156 155 0
-156 19 0
157 -770 -154 0
-157 770 0
-157 154 0
158 -728 -8 0
-158 728 0
-158 8 0
159 -158 -24 0
-159 158 0
-159 24 0
160 -771 -157 0
-160 771 0
-160 157 0
161 -34 -772 0
-161 34 0
-161 772 0
162 -161 -23 0
-162 161 0
-162 23 0
163 -773 -160 0
-163 773 0
-163 160 0
164 -774 -24 0
-164 774 0
-164 24 0
165 -164 -45 0
-165 164 0
-165 45 0
166 -775 -163 0
-166 775 0
-166 163 0
167 -45 -739 0
-167 45 0
-167 739 0
168 -167 -705 0
-168 167 0
-168 705 0
169 -776 -166 0
-169 776 0
-169 166 0
170 -32 -777 0
-170 32 0
-170 777 0
171 -170 -736 0
-171 170 0
-171 736 0
172 -778 -169 0
-172 778 0
-172 169 0
173 -13 -12 0
-173 13 0
-173 12 0
174 -173 -22 0
-174 173 0
-174 22 0
175 -779 -172 0
-175 779 0
-175 172 0
176 -43 -774 0
-176 43 0
-176 774 0
177 -176 -31 0
-177 176 0
-177 31 0
178 -780 -175 0
-178 780 0
-178 175 0
179 -45 -747 0
-179 45 0
-179 747 0
180 -179 -21 0
-180 179 0
-180 21 0
181 -781 -178 0
-181 781 0
-181 178 0
182 -45 -24 0
-182 45 0
-182 24 0
183 -182 -782 0
-183 182 0
-183 782 0
184 -783 -181 0
-184 783 0
-184 181 0
185 -41 -5 0
-185 41 0
-185 5 0
186 -185 -750 0
-186 185 0
-186 750 0
187 -784 -184 0
-187 784 0
-187 184 0
188 -34 -699 0
-188 34 0
-188 699 0
189 -188 -30 0
-189 188 0
-189 30 0
190 -785 -187 0
-190 785 0
-190 187 0
191 -750 -18 0
-191 750 0
-191 18 0
192 -191 -9 0
-192 191 0
-192 9 0
193 -786 -190 0
-193 786 0
-193 190 0
194 -757 -20 0
-194 757 0
-194 20 0
195 -194 -722 0
-195 194 0
-195 722 0
196 -787 -193 0
-196 787 0
-196 193 0
197 -715 -2 0
-197 715 0
-197 2 0
198 -197 -751 0
-198 197 0
-198 751 0
199 -788 -196 0
-199 788 0
-199 196 0
200 -32 -744 0
-200 32 0
-200 744 0
201 -200 -6 0
-201 200 0
-201 6 0
202 -789 -199 0
-202 789 0
-202 199 0
203 -49 -726 0
-203 49 0
-203 726 0
204 -203 -744 0
-204 203 0
-204 744 0
205 -790 -202 0
-205 790 0
-205 202 0
206 -747 -722 0
-206 747 0
-206 722 0
207 -206 -736 0
-207 206 0
-207 736 0
208 -791 -205 0
-208 791 0
-208 205 0
209 -34 -701 0
-209 34 0
-209 701 0
210 -209 -792 0
-210 209 0
-210 792 0
211 -793 -208 0
-211 793 0
-211 208 0
212 -751 -794 0
-212 751 0
-212 794 0
213 -212 -28 0
-213 212 0
-213 28 0
214 -795 -211 0
-214 795 0
-214 211 0
215 -730 -20 0
-215 730 0
-215 20 0
216 -215 -45 0
-216 215 0
-216 45 0
217 -796 -214 0
-217 796 0
-217 214 0
218 -772 -5 0
-218 772 0
-218 5 0
219 -218 -48 0
-219 218 0
-219 48 0
220 -797 -217 0
-220 797 0
-220 217 0
221 -12 -8 0
-221 12 0
-221 8 0
222 -221 -763 0
-222 221 0
-222 763 0
223 -798 -220 0
-223 798 0
-223 220 0
224 -41 -36 0
-224 41 0
-224 36 0
225 -224 -45 0
-225 224 0
-225 45 0
226 -799 -223 0
-226 799 0
-226 223 0
227 -36 -11 0
-227 36 0
-227 11 0
228 -227 -757 0
-228 227 0
-228 757 0
229 -800 -226 0
-229 800 0
-229 226 0
230 -774 -11 0
-230 774 0
-230 11 0
231 -230 -794 0
-231 230 0
-231 794 0
232 -801 -229 0
-232 801 0
-232 229 0
233 -739 -701 0
-233 739 0
-233 701 0
234 -233 -28 0
-234 233 0
-234 28 0
235 -802 -232 0
-235 802 0
-235 232 0
236 -2 -1 0
-236 2 0
-236 1 0
237 -236 -754 0
-237 236 0
-237 754 0
238 -803 -235 0
-238 803 0
-238 235 0
239 -735 -757 0
-239 735 0
-239 757 0
240 -239 -794 0
-240 239 0
-240 794 0
241 -804 -238 0
-241 804 0
-241 238 0
242 -50 -715 0
-242 50 0
-242 715 0
243 -242 -705 0
-243 242 0
-243 705 0
244 -805 -241 0
-244 805 0
-244 241 0
245 -757 -707 0
-245 757 0
-245 707 0
246 -245 -25 0
-246 245 0
-246 25 0
247 -806 -244 0
-247 806 0
-247 244 0
248 -794 -24 0
-248 794 0
-248 24 0
249 -248 -782 0
-249 248 0
-249 782 0
250 -807 -247 0
-250 807 0
-250 247 0
251 -711 -4 0
-251 711 0
-251 4 0
252 -251 -39 0
-252 251 0
-252 39 0
253 -808 -250 0
-253 808 0
-253 250 0
254 -22 -17 0
-254 22 0
-254 17 0
255 -254 -754 0
-255 254 0
-255 754 0
256 -809 -253 0
-256 809 0
-256 253 0
257 -739 -8 0
-257 739 0
-257 8 0
258 -257 -698 0
-258 257 0
-258 698 0
259 -810 -256 0
-259 810 0
-259 256 0
260 -739 -34 0
-260 739 0
-260 34 0
261 -260 -50 0
-261 260 0
-261 50 0
262 -811 -259 0
-262 811 0
-262 259 0
263 -812 -698 0
-263 812 0
-263 698 0
264 -263 -9 0
-264 263 0
-264 9 0
265 -813 -262 0
-265 813 0
-265 262 0
266 -15 -814 0
-266 15 0
-266 814 0
267 -266 -815 0
-267 266 0
-267 815 0
268 -816 -265 0
-268 816 0
-268 265 0
269 -18 -2 0
-269 18 0
-269 2 0
270 -269 -39 0
-270 269 0
-270 39 0
271 -817 -268 0
-271 817 0
-271 268 0
272 -31 -11 0
-272 31 0
-272 11 0
273 -272 -754 0
-273 272 0
-273 754 0
274 -818 -271 0
-274 818 0
-274 271 0
275 -763 -698 0
-275 763 0
-275 698 0
276 -275 -21 0
-276 275 0
-276 21 0
277 -819 -274 0
-277 819 0
-277 274 0
278 -764 -700 0
-278 764 0
-278 700 0
279 -278 -26 0
-279 278 0
-279 26 0
280 -820 -277 0
-280 820 0
-280 277 0
281 -20 -698 0
-281 20 0
-281 698 0
282 -281 -30 0
-282 281 0
-282 30 0
283 -821 -280 0
-283 821 0
-283 280 0
284 -16 -1 0
-284 16 0
-284 1 0
285 -284 -742 0
-285 284 0
-285 742 0
286 -822 -283 0
-286 822 0
-286 283 0
287 -47 -747 0
-287 47 0
-287 747 0
288 -287 -782 0
-288 287 0
-288 782 0
289 -823 -286 0
-289 823 0
-289 286 0
290 -11 -699 0
-290 11 0
-290 699 0
291 -290 -30 0
-291 290 0
-291 30 0
292 -824 -289 0
-292 824 0
-292 289 0
293 -37 -750 0
-293 37 0
-293 750 0
294 -293 -20 0
-294 293 0
-294 20 0
295 -825 -292 0
-295 825 0
-295 292 0
296 -730 -724 0
-296 730 0
-296 724 0
297 -296 -815 0
-297 296 0
-297 815 0
298 -826 -295 0
-298 826 0
-298 295 0
299 -86 -19 0
-299 86 0
-299 19 0
300 -827 -298 0
-300 827 0
-300 298 0
301 -42 -12 0
-301 42 0
-301 12 0
302 -301 -22 0
-302 301 0
-302 22 0
303 -828 -300 0
-303 828 0
-303 300 0
304 -24 -699 0
-304 24 0
-304 699 0
305 -304 -719 0
-305 304 0
-305 719 0
306 -829 -303 0
-306 829 0
-306 303 0
307 -20 -4 0
-307 20 0
-307 4 0
308 -307 -42 0
-308 307 0
-308 42 0
309 -830 -306 0
-309 830 0
-309 306 0
310 -739 -10 0
-310 739 0
-310 10 0
311 -310 -831 0
-311 310 0
-311 831 0
312 -832 -309 0
-312 832 0
-312 309 0
313 -41 -13 0
-313 41 0
-313 13 0
314 -313 -702 0
-314 313 0
-314 702 0
315 -833 -312 0
-315 833 0
-315 312 0
316 -834 -707 0
-316 834 0
-316 707 0
317 -316 -722 0
-317 316 0
-317 722 0
318 -835 -315 0
-318 835 0
-318 315 0
319 -777 -711 0
-319 777 0
-319 711 0
320 -319 -766 0
-320 319 0
-320 766 0
321 -836 -318 0
-321 836 0
-321 318 0
322 -815 -700 0
-322 815 0
-322 700 0
323 -322 -45 0
-323 322 0
-323 45 0
324 -837 -321 0
-324 837 0
-324 321 0
325 -42 -757 0
-325 42 0
-325 757 0
326 -325 -782 0
-326 325 0
-326 782 0
327 -838 -324 0
-327 838 0
-327 324 0
328 -44 -2 0
-328 44 0
-328 2 0
329 -328 -831 0
-329 328 0
-329 831 0
330 -839 -327 0
-330 839 0
-330 327 0
331 -24 -814 0
-331 24 0
-331 814 0
332 -331 -742 0
-332 331 0
-332 742 0
333 -840 -330 0
-333 840 0
-333 330 0
334 -46 -715 0
-334 46 0
-334 715 0
335 -334 -705 0
-335 334 0
-335 705 0
336 -841 -333 0
-336 841 0
-336 333 0
337 -46 -32 0
-337 46 0
-337 32 0
338 -337 -30 0
-338 337 0
-338 30 0
339 -842 -336 0
-339 842 0
-339 336 0
340 -41 -3 0
-340 41 0
-340 3 0
341 -340 -19 0
-341 340 0
-341 19 0
342 -843 -339 0
-342 843 0
-342 339 0
343 -39 -32 0
-343 39 0
-343 32 0
344 -343 -35 0
-344 343 0
-344 35 0
345 -844 -342 0
-345 844 0
-345 342 0
346 -49 -20 0
-346 49 0
-346 20 0
347 -346 -26 0
-347 346 0
-347 26 0
348 -845 -345 0
-348 845 0
-348 345 0
349 -814 -10 0
-349 814 0
-349 10 0
350 -349 -47 0
-350 349 0
-350 47 0
351 -846 -348 0
-351 846 0
-351 348 0
352 -39 -38 0
-352 39 0
-352 38 0
353 -352 -719 0
-353 352 0
-353 719 0
354 -847 -351 0
-354 847 0
-354 351 0
355 -848 -764 0
-355 848 0
-355 764 0
356 -355 -9 0
-356 355 0
-356 9 0
357 -849 -354 0
-357 849 0
-357 354 0
358 -794 -772 0
-358 794 0
-358 772 0
359 -358 -47 0
-359 358 0
-359 47 0
360 -850 -357 0
-360 850 0
-360 357 0
361 -36 -21 0
-361 36 0
-361 21 0
362 -361 -30 0
-362 361 0
-362 30 0
363 -851 -360 0
-363 851 0
-363 360 0
364 -708 -698 0
-364 708 0
-364 698 0
365 -364 -3 0
-365 364 0
-365 3 0
366 -852 -363 0
-366 852 0
-366 363 0
367 -735 -761 0
-367 735 0
-367 761 0
368 -367 -705 0
-368 367 0
-368 705 0
369 -853 -366 0
-369 853 0
-369 366 0
370 -726 -724 0
-370 726 0
-370 724 0
371 -370 -708 0
-371 370 0
-371 708 0
372 -854 -369 0
-372 854 0
-372 369 0
373 -19 -14 0
-373 19 0
-373 14 0
374 -373 -736 0
-374 373 0
-374 736 0
375 -855 -372 0
-375 855 0
-375 372 0
376 -43 -7 0
-376 43 0
-376 7 0
377 -376 -750 0
-377 376 0
-377 750 0
378 -856 -375 0
-378 856 0
-378 375 0
379 -724 -5 0
-379 724 0
-379 5 0
380 -379 -45 0
-380 379 0
-380 45 0
381 -857 -378 0
-381 857 0
-381 378 0
382 -726 -6 0
-382 726 0
-382 6 0
383 -382 -754 0
-383 382 0
-383 754 0
384 -858 -381 0
-384 858 0
-384 381 0
385 -739 -11 0
-385 739 0
-385 11 0
386 -385 -733 0
-386 385 0
-386 733 0
387 -859 -384 0
-387 859 0
-387 384 0
388 -173 -48 0
-388 173 0
-388 48 0
389 -860 -387 0
-389 860 0
-389 387 0
390 -36 -736 0
-390 36 0
-390 736 0
391 -390 -6 0
-391 390 0
-391 6 0
392 -861 -389 0
-392 861 0
-392 389 0
393 -34 -25 0
-393 34 0
-393 25 0
394 -393 -22 0
-394 393 0
-394 22 0
395 -862 -392 0
-395 862 0
-395 392 0
396 -42 -722 0
-396 42 0
-396 722 0
397 -396 -26 0
-397 396 0
-397 26 0
398 -863 -395 0
-398 863 0
-398 395 0
399 -8 -2 0
-399 8 0
-399 2 0
400 -399 -766 0
-400 399 0
-400 766 0
401 -864 -398 0
-401 864 0
-401 398 0
402 -38 -707 0
-402 38 0
-402 707 0
403 -402 -740 0
-403 402 0
-403 740 0
404 -865 -401 0
-404 865 0
-404 401 0
405 -750 -708 0
-405 750 0
-405 708 0
406 -405 -6 0
-406 405 0
-406 6 0
407 -866 -404 0
-407 866 0
-407 404 0
408 -747 -757 0
-408 747 0
-408 757 0
409 -408 -28 0
-409 408 0
-409 28 0
410 -867 -407 0
-410 867 0
-410 407 0
411 -41 -728 0
-411 41 0
-411 728 0
412 -411 -21 0
-412 411 0
-412 21 0
413 -868 -410 0
-413 868 0
-413 410 0
414 -756 -740 0
-414 756 0
-414 740 0
415 -414 -6 0
-415 414 0
-415 6 0
416 -869 -413 0
-416 869 0
-416 413 0
417 -711 -11 0
-417 711 0
-417 11 0
418 -417 -48 0
-418 417 0
-418 48 0
419 -870 -416 0
-419 870 0
-419 416 0
420 -812 -23 0
-420 812 0
-420 23 0
421 -420 -9 0
-421 420 0
-421 9 0
422 -871 -419 0
-422 871 0
-422 419 0
423 -355 -11 0
-423 355 0
-423 11 0
424 -872 -422 0
-424 872 0
-424 422 0
425 -730 -763 0
-425 730 0
-425 763 0
426 -425 -28 0
-426 425 0
-426 28 0
427 -873 -424 0
-427 873 0
-427 424 0
428 -766 -30 0
-428 766 0
-428 30 0
429 -428 -733 0
-429 428 0
-429 733 0
430 -874 -427 0
-430 874 0
-430 427 0
431 -739 -698 0
-431 739 0
-431 698 0
432 -431 -21 0
-432 431 0
-432 21 0
433 -875 -430 0
-433 875 0
-433 430 0
434 -757 -4 0
-434 757 0
-434 4 0
435 -434 -733 0
-435 434 0
-435 733 0
436 -876 -433 0
-436 876 0
-436 433 0
437 -848 -23 0
-437 848 0
-437 23 0
438 -437 -782 0
-438 437 0
-438 782 0
439 -877 -436 0
-439 877 0
-439 436 0
440 -761 -4 0
-440 761 0
-440 4 0
441 -440 -754 0
-441 440 0
-441 754 0
442 -878 -439 0
-442 878 0
-442 439 0
443 -13 -764 0
-443 13 0
-443 764 0
444 -443 -23 0
-444 443 0
-444 23 0
445 -879 -442 0
-445 879 0
-445 442 0
446 -848 -12 0
-446 848 0
-446 12 0
447 -446 -831 0
-447 446 0
-447 831 0
448 -880 -445 0
-448 880 0
-448 445 0
449 -728 -701 0
-449 728 0
-449 701 0
450 -449 -47 0
-450 449 0
-450 47 0
451 -881 -448 0
-451 881 0
-451 448 0
452 -18 -8 0
-452 18 0
-452 8 0
453 -452 -747 0
-453 452 0
-453 747 0
454 -882 -451 0
-454 882 0
-454 451 0
455 -756 -708 0
-455 756 0
-455 708 0
456 -455 -11 0
-456 455 0
-456 11 0
457 -883 -454 0
-457 883 0
-457 454 0
458 -39 -699 0
-458 39 0
-458 699 0
459 -458 -792 0
-459 458 0
-459 792 0
460 -884 -457 0
-460 884 0
-460 457 0
461 -717 -1 0
-461 717 0
-461 1 0
462 -461 -731 0
-462 461 0
-462 731 0
463 -885 -460 0
-463 885 0
-463 460 0
464 -711 -15 0
-464 711 0
-464 15 0
465 -464 -731 0
-465 464 0
-465 731 0
466 -886 -463 0
-466 886 0
-466 463 0
467 -17 -1 0
-467 17 0
-467 1 0
468 -467 -700 0
-468 467 0
-468 700 0
469 -887 -466 0
-469 887 0
-469 466 0
470 -711 -708 0
-470 711 0
-470 708 0
471 -470 -14 0
-471 470 0
-471 14 0
472 -888 -469 0
-472 888 0
-472 469 0
473 -27 -740 0
-473 27 0
-473 740 0
474 -473 -763 0
-474 473 0
-474 763 0
475 -889 -472 0
-475 889 0
-475 472 0
476 -25 -2 0
-476 25 0
-476 2 0
477 -476 -48 0
-477 476 0
-477 48 0
478 -890 -475 0
-478 890 0
-478 475 0
479 -742 -707 0
-479 742 0
-479 707 0
480 -479 -754 0
-480 479 0
-480 754 0
481 -891 -478 0
-481 891 0
-481 478 0
482 -792 -18 0
-482 792 0
-482 18 0
483 -482 -731 0
-483 482 0
-483 731 0
484 -892 -481 0
-484 892 0
-484 481 0
485 -722 -740 0
-485 722 0
-485 740 0
486 -485 -42 0
-486 485 0
-486 42 0
487 -893 -484 0
-487 893 0
-487 484 0
488 -730 -3 0
-488 730 0
-488 3 0
489 -488 -751 0
-489 488 0
-489 751 0
490 -894 -487 0
-490 894 0
-490 487 0
491 -747 -699 0
-491 747 0
-491 699 0
492 -491 -744 0
-492 491 0
-492 744 0
493 -895 -490 0
-493 895 0
-493 490 0
494 -736 -711 0
-494 736 0
-494 711 0
495 -494 -766 0
-495 494 0
-495 766 0
496 -896 -493 0
-496 896 0
-496 493 0
497 -43 -29 0
-497 43 0
-497 29 0
498 -497 -707 0
-498 497 0
-498 707 0
499 -897 -496 0
-499 897 0
-499 496 0
500 -730 -13 0
-500 730 0
-500 13 0
501 -500 -6 0
-501 500 0
-501 6 0
502 -898 -499 0
-502 898 0
-502 499 0
503 -815 -730 0
-503 815 0
-503 730 0
504 -503 -761 0
-504 503 0
-504 761 0
505 -899 -502 0
-505 899 0
-505 502 0
506 -834 -5 0
-506 834 0
-506 5 0
507 -506 -751 0
-507 506 0
-507 751 0
508 -900 -505 0
-508 900 0
-508 505 0
509 -735 -25 0
-509 735 0
-509 25 0
510 -509 -766 0
-510 509 0
-510 766 0
511 -901 -508 0
-511 901 0
-511 508 0
512 -39 -13 0
-512 39 0
-512 13 0
513 -512 -45 0
-513 512 0
-513 45 0
514 -902 -511 0
-514 902 0
-514 511 0
515 -23 -13 0
-515 23 0
-515 13 0
516 -515 -19 0
-516 515 0
-516 19 0
517 -903 -514 0
-517 903 0
-517 514 0
518 -35 -726 0
-518 35 0
-518 726 0
519 -518 -754 0
-519 518 0
-519 754 0
520 -904 -517 0
-520 904 0
-520 517 0
521 -905 -7 0
-521 905 0
-521 7 0
522 -521 -48 0
-522 521 0
-522 48 0
523 -906 -520 0
-523 906 0
-523 520 0
524 -43 -13 0
-524 43 0
-524 13 0
525 -524 -766 0
-525 524 0
-525 766 0
526 -907 -523 0
-526 907 0
-526 523 0
527 -45 -772 0
-527 45 0
-527 772 0
528 -527 -42 0
-528 527 0
-528 42 0
529 -908 -526 0
-529 908 0
-529 526 0
530 -47 -815 0
-530 47 0
-530 815 0
531 -530 -42 0
-531 530 0
-531 42 0
532 -909 -529 0
-532 909 0
-532 529 0
533 -726 -700 0
-533 726 0
-533 700 0
534 -533 -731 0
-534 533 0
-534 731 0
535 -910 -532 0
-535 910 0
-535 532 0
536 -726 -711 0
-536 726 0
-536 711 0
537 -536 -698 0
-537 536 0
-537 698 0
538 -911 -535 0
-538 911 0
-538 535 0
539 -739 -1 0
-539 739 0
-539 1 0
540 -539 -756 0
-540 539 0
-540 756 0
541 -912 -538 0
-541 912 0
-541 538 0
542 -848 -22 0
-542 848 0
-542 22 0
543 -542 -31 0
-543 542 0
-543 31 0
544 -913 -541 0
-544 913 0
-544 541 0
545 -834 -13 0
-545 834 0
-545 13 0
546 -545 -733 0
-546 545 0
-546 733 0
547 -914 -544 0
-547 914 0
-547 544 0
548 -17 -814 0
-548 17 0
-548 814 0
549 -548 -736 0
-549 548 0
-549 736 0
550 -915 -547 0
-550 915 0
-550 547 0
551 -848 -3 0
-551 848 0
-551 3 0
552 -551 -782 0
-552 551 0
-552 782 0
553 -916 -550 0
-553 916 0
-553 550 0
554 -50 -756 0
-554 50 0
-554 756 0
555 -554 -719 0
-555 554 0
-555 719 0
556 -917 -553 0
-556 917 0
-556 553 0
557 -197 -831 0
-557 197 0
-557 831 0
558 -918 -556 0
-558 918 0
-558 556 0
559 -48 -757 0
-559 48 0
-559 757 0
560 -559 -9 0
-560 559 0
-560 9 0
561 -919 -558 0
-561 919 0
-561 558 0
562 -814 -764 0
-562 814 0
-562 764 0
563 -562 -26 0
-563 562 0
-563 26 0
564 -920 -561 0
-564 920 0
-564 561 0
565 -730 -21 0
-565 730 0
-565 21 0
566 -565 -702 0
-566 565 0
-566 702 0
567 -921 -564 0
-567 921 0
-567 564 0
568 -46 -2 0
-568 46 0
-568 2 0
569 -568 -5 0
-569 568 0
-569 5 0
570 -922 -567 0
-570 922 0
-570 567 0
571 -731 -3 0
-571 731 0
-571 3 0
572 -571 -766 0
-572 571 0
-572 766 0
573 -923 -570 0
-573 923 0
-573 570 0
574 -40 -712 0
-574 40 0
-574 712 0
575 -574 -30 0
-575 574 0
-575 30 0
576 -924 -573 0
-576 924 0
-576 573 0
577 -32 -750 0
-577 32 0
-577 750 0
578 -577 -766 0
-578 577 0
-578 766 0
579 -925 -576 0
-579 925 0
-579 576 0
580 -735 -17 0
-580 735 0
-580 17 0
581 -580 -3 0
-581 580 0
-581 3 0
582 -926 -579 0
-582 926 0
-582 579 0
583 -812 -751 0
-583 812 0
-583 751 0
584 -583 -9 0
-584 583 0
-584 9 0
585 -927 -582 0
-585 927 0
-585 582 0
586 -905 -18 0
-586 905 0
-586 18 0
587 -586 -754 0
-587 586 0
-587 754 0
588 -928 -585 0
-588 928 0
-588 585 0
589 -747 -724 0
-589 747 0
-589 724 0
590 -589 -702 0
-590 589 0
-590 702 0
591 -929 -588 0
-591 929 0
-591 588 0
592 -43 -1 0
-592 43 0
-592 1 0
593 -592 -777 0
-593 592 0
-593 777 0
594 -930 -591 0
-594 930 0
-594 591 0
595 -726 -27 0
-595 726 0
-595 27 0
596 -595 -777 0
-596 595 0
-596 777 0
597 -931 -594 0
-597 931 0
-597 594 0
598 -23 -700 0
-598 23 0
-598 700 0
599 -598 -744 0
-599 598 0
-599 744 0
600 -932 -597 0
-600 932 0
-600 597 0
601 -39 -724 0
-601 39 0
-601 724 0
602 -601 -905 0
-602 601 0
-602 905 0
603 -933 -600 0
-603 933 0
-603 600 0
604 -43 -11 0
-604 43 0
-604 11 0
605 -604 -9 0
-605 604 0
-605 9 0
606 -934 -603 0
-606 934 0
-606 603 0
607 -777 -18 0
-607 777 0
-607 18 0
608 -607 -736 0
-608 607 0
-608 736 0
609 -935 -606 0
-609 935 0
-609 606 0
610 -744 -12 0
-610 744 0
-610 12 0
611 -610 -766 0
-611 610 0
-611 766 0
612 -936 -609 0
-612 936 0
-612 609 0
613 -726 -2 0
-613 726 0
-613 2 0
614 -613 -766 0
-614 613 0
-614 766 0
615 -937 -612 0
-615 937 0
-615 612 0
616 -739 -757 0
-616 739 0
-616 757 0
617 -616 -23 0
-617 616 0
-617 23 0
618 -938 -615 0
-618 938 0
-618 615 0
619 -36 -16 0
-619 36 0
-619 16 0
620 -619 -10 0
-620 619 0
-620 10 0
621 -939 -618 0
-621 939 0
-621 618 0
622 -45 -698 0
-622 45 0
-622 698 0
623 -622 -831 0
-623 622 0
-623 831 0
624 -940 -621 0
-624 940 0
-624 621 0
625 -42 -794 0
-625 42 0
-625 794 0
626 -625 -777 0
-626 625 0
-626 777 0
627 -941 -624 0
-627 941 0
-627 624 0
628 -728 -7 0
-628 728 0
-628 7 0
629 -628 -717 0
-629 628 0
-629 717 0
630 -942 -627 0
-630 942 0
-630 627 0
631 -774 -726 0
-631 774 0
-631 726 0
632 -631 -25 0
-632 631 0
-632 25 0
633 -943 -630 0
-633 943 0
-633 630 0
634 -316 -719 0
-634 316 0
-634 719 0
635 -944 -633 0
-635 944 0
-635 633 0
636 -27 -15 0
-636 27 0
-636 15 0
637 -636 -42 0
-637 636 0
-637 42 0
638 -945 -635 0
-638 945 0
-638 635 0
639 -49 -27 0
-639 49 0
-639 27 0
640 -639 -24 0
-640 639 0
-640 24 0
641 -946 -638 0
-641 946 0
-641 638 0
642 -86 -21 0
-642 86 0
-642 21 0
643 -947 -641 0
-643 947 0
-643 641 0
644 -24 -20 0
-644 24 0
-644 20 0
645 -644 -26 0
-645 644 0
-645 26 0
646 -948 -643 0
-646 948 0
-646 643 0
647 -49 -37 0
-647 49 0
-647 37 0
648 -647 -28 0
-648 647 0
-648 28 0
649 -949 -646 0
-649 949 0
-649 646 0
650 -48 -14 0
-650 48 0
-650 14 0
651 -650 -35 0
-651 650 0
-651 35 0
652 -950 -649 0
-652 950 0
-652 649 0
653 -46 -13 0
-653 46 0
-653 13 0
654 -653 -6 0
-654 653 0
-654 6 0
655 -951 -652 0
-655 951 0
-655 652 0
656 -27 -701 0
-656 27 0
-656 701 0
657 -656 -21 0
-657 656 0
-657 21 0
658 -952 -655 0
-658 952 0
-658 655 0
659 -848 -724 0
-659 848 0
-659 724 0
660 -659 -49 0
-660 659 0
-660 49 0
661 -953 -658 0
-661 953 0
-661 658 0
662 -815 -13 0
-662 815 0
-662 13 0
663 -662 -794 0
-663 662 0
-663 794 0
664 -954 -661 0
-664 954 0
-664 661 0
665 -735 -700 0
-665 735 0
-665 700 0
666 -665 -28 0
-666 665 0
-666 28 0
667 -955 -664 0
-667 955 0
-667 664 0
668 -50 -707 0
-668 50 0
-668 707 0
669 -668 -42 0
-669 668 0
-669 42 0
670 -956 -667 0
-670 956 0
-670 667 0
671 -735 -23 0
-671 735 0
-671 23 0
672 -671 -20 0
-672 671 0
-672 20 0
673 -957 -670 0
-673 957 0
-673 670 0
674 -753 -33 0
-674 753 0
-674 33 0
675 -674 -754 0
-675 674 0
-675 754 0
676 -958 -673 0
-676 958 0
-676 673 0
677 -717 -4 0
-677 717 0
-677 4 0
678 -677 -719 0
-678 677 0
-678 719 0
679 -959 -676 0
-679 959 0
-679 676 0
680 -794 -4 0
-680 794 0
-680 4 0
681 -680 -766 0
-681 680 0
-681 766 0
682 -960 -679 0
-682 960 0
-682 679 0
683 -834 -4 0
-683 834 0
-683 4 0
684 -683 -757 0
-684 683 0
-684 757 0
685 -961 -682 0
-685 961 0
-685 682 0
686 -747 -756 0
-686 747 0
-686 756 0
687 -686 -50 0
-687 686 0
-687 50 0
688 -962 -685 0
-688 962 0
-688 685 0
689 -17 -4 0
-689 17 0
-689 4 0
690 -689 -12 0
-690 689 0
-690 12 0
691 -963 -688 0
-691 963 0
-691 688 0
692 -37 -17 0
-692 37 0
-692 17 0
693 -692 -794 0
-693 692 0
-693 794 0
694 -964 -691 0
-694 964 0
-694 691 0
695 -739 -726 0
-695 739 0
-695 726 0
696 -695 -717 0
-696 695 0
-696 717 0
697 -965 -694 0
-697 965 0
-697 694 0
-698 -2 0
698 2 0
-699 -1 0
699 1 0
-700 -5 0
700 5 0
-701 -4 0
701 4 0
-702 -6 0
702 6 0
-703 -54 0
703 54 0
-704 -52 0
704 52 0
-705 -9 0
705 9 0
-706 -57 0
706 57 0
-707 -11 0
707 11 0
-708 -10 0
708 10 0
-709 -60 0
709 60 0
-710 -63 0
710 63 0
-711 -16 0
711 16 0
-712 -15 0
712 15 0
-713 -66 0
713 66 0
-714 -69 0
714 69 0
-715 -18 0
715 18 0
-716 -72 0
716 72 0
-717 -12 0
717 12 0
-718 -75 0
718 75 0
-719 -22 0
719 22 0
-720 -78 0
720 78 0
-721 -81 0
721 81 0
-722 -24 0
722 24 0
-723 -84 0
723 84 0
-724 -27 0
724 27 0
-725 -87 0
725 87 0
-726 -29 0
726 29 0
-727 -90 0
727 90 0
-728 -32 0
728 32 0
-729 -93 0
729 93 0
-730 -34 0
730 34 0
-731 -26 0
731 26 0
-732 -96 0
732 96 0
-733 -35 0
733 35 0
-734 -99 0
734 99 0
-735 -36 0
735 36 0
-736 -30 0
736 30 0
-737 -102 0
737 102 0
-738 -105 0
738 105 0
-739 -38 0
739 38 0
-740 -3 0
740 3 0
-741 -108 0
741 108 0
-742 -25 0
742 25 0
-743 -111 0
743 111 0
-744 -20 0
744 20 0
-745 -114 0
745 114 0
-746 -117 0
746 117 0
-747 -41 0
747 41 0
-748 -120 0
748 120 0
-749 -123 0
749 123 0
-750 -23 0
750 23 0
-751 -42 0
751 42 0
-752 -126 0
752 126 0
-753 -43 0
753 43 0
-754 -28 0
754 28 0
-755 -129 0
755 129 0
-756 -17 0
756 17 0
-757 -33 0
757 33 0
-758 -132 0
758 132 0
-759 -135 0
759 135 0
-760 -138 0
760 138 0
-761 -14 0
761 14 0
-762 -141 0
762 141 0
-763 -19 0
763 19 0
-764 -7 0
764 7 0
-765 -144 0
765 144 0
-766 -31 0
766 31 0
-767 -147 0
767 147 0
-768 -150 0
768 150 0
-769 -153 0
769 153 0
-770 -156 0
770 156 0
-771 -159 0
771 159 0
-772 -8 0
772 8 0
-773 -162 0
773 162 0
-774 -40 0
774 40 0
-775 -165 0
775 165 0
-776 -168 0
776 168 0
-777 -21 0
777 21 0
-778 -171 0
778 171 0
-779 -174 0
779 174 0
-780 -177 0
780 177 0
-781 -180 0
781 180 0
-782 -48 0
782 48 0
-783 -183 0
783 183 0
-784 -186 0
784 186 0
-785 -189 0
785 189 0
-786 -192 0
786 192 0
-787 -195 0
787 195 0
-788 -198 0
788 198 0
-789 -201 0
789 201 0
-790 -204 0
790 204 0
-791 -207 0
791 207 0
-792 -45 0
792 45 0
-793 -210 0
793 210 0
-794 -39 0
794 39 0
-795 -213 0
795 213 0
-796 -216 0
796 216 0
-797 -219 0
797 219 0
-798 -222 0
798 222 0
-799 -225 0
799 225 0
-800 -228 0
800 228 0
-801 -231 0
801 231 0
-802 -234 0
802 234 0
-803 -237 0
803 237 0
-804 -240 0
804 240 0
-805 -243 0
805 243 0
-806 -246 0
806 246 0
-807 -249 0
807 249 0
-808 -252 0
808 252 0
-809 -255 0
809 255 0
-810 -258 0
810 258 0
-811 -261 0
811 261 0
-812 -49 0
812 49 0
-813 -264 0
813 264 0
-814 -13 0
814 13 0
-815 -46 0
815 46 0
-816 -267 0
816 267 0
-817 -270 0
817 270 0
-818 -273 0
818 273 0
-819 -276 0
819 276 0
-820 -279 0
820 279 0
-821 -282 0
821 282 0
-822 -285 0
822 285 0
-823 -288 0
823 288 0
-824 -291 0
824 291 0
-825 -294 0
825 294 0
-826 -297 0
826 297 0
-827 -299 0
827 299 0
-828 -302 0
828 302 0
-829 -305 0
829 305 0
-830 -308 0
830 308 0
-831 -47 0
831 47 0
-832 -311 0
832 311 0
-833 -314 0
833 314 0
-834 -37 0
834 37 0
-835 -317 0
835 317 0
-836 -320 0
836 320 0
-837 -323 0
837 323 0
-838 -326 0
838 326 0
-839 -329 0
839 329 0
-840 -332 0
840 332 0
-841 -335 0
841 335 0
-842 -338 0
842 338 0
-843 -341 0
843 341 0
-844 -344 0
844 344 0
-845 -347 0
845 347 0
-846 -350 0
846 350 0
-847 -353 0
847 353 0
-848 -44 0
848 44 0
-849 -356 0
849 356 0
-850 -359 0
850 359 0
-851 -362 0
851 362 0
-852 -365 0
852 365 0
-853 -368 0
853 368 0
-854 -371 0
854 371 0
-855 -374 0
855 374 0
-856 -377 0
856 377 0
-857 -380 0
857 380 0
-858 -383 0
858 383 0
-859 -386 0
859 386 0
-860 -388 0
860 388 0
-861 -391 0
861 391 0
-862 -394 0
862 394 0
-863 -397 0
863 397 0
-864 -400 0
864 400 0
-865 -403 0
865 403 0
-866 -406 0
866 406 0
-867 -409 0
867 409 0
-868 -412 0
868 412 0
-869 -415 0
869 415 0
-870 -418 0
870 418 0
-871 -421 0
871 421 0
-872 -423 0
872 423 0
-873 -426 0
873 426 0
-874 -429 0
874 429 0
-875 -432 0
875 432 0
-876 -435 0
876 435 0
-877 -438 0
877 438 0
-878 -441 0
878 441 0
-879 -444 0
879 444 0
-880 -447 0
880 447 0
-881 -450 0
881 450 0
-882 -453 0
882 453 0
-883 -456 0
883 456 0
-884 -459 0
884 459 0
-885 -462 0
885 462 0
-886 -465 0
886 465 0
-887 -468 0
887 468 0
-888 -471 0
888 471 0
-889 -474 0
889 474 0
-890 -477 0
890 477 0
-891 -480 0
891 480 0
-892 -483 0
892 483 0
-893 -486 0
893 486 0
-894 -489 0
894 489 0
-895 -492 0
895 492 0
-896 -495 0
896 495 0
-897 -498 0
897 498 0
-898 -501 0
898 501 0
-899 -504 0
899 504 0
-900 -507 0
900 507 0
-901 -510 0
901 510 0
-902 -513 0
902 513 0
-903 -516 0
903 516 0
-904 -519 0
904 519 0
-905 -50 0
905 50 0
-906 -522 0
906 522 0
-907 -525 0
907 525 0
-908 -528 0
908 528 0
-909 -531 0
909 531 0
-910 -534 0
910 534 0
-911 -537 0
911 537 0
-912 -540 0
912 540 0
-913 -543 0
913 543 0
-914 -546 0
914 546 0
-915 -549 0
915 549 0
-916 -552 0
916 552 0
-917 -555 0
917 555 0
-918 -557 0
918 557 0
-919 -560 0
919 560 0
-920 -563 0
920 563 0
-921 -566 0
921 566 0
-922 -569 0
922 569 0
-923 -572 0
923 572 0
-924 -575 0
924 575 0
-925 -578 0
925 578 0
-926 -581 0
926 581 0
-927 -584 0
927 584 0
-928 -587 0
928 587 0
-929 -590 0
929 590 0
-930 -593 0
930 593 0
-931 -596 0
931 596 0
-932 -599 0
932 599 0
-933 -602 0
933 602 0
-934 -605 0
934 605 0
-935 -608 0
935 608 0
-936 -611 0
936 611 0
-937 -614 0
937 614 0
-938 -617 0
938 617 0
-939 -620 0
939 620 0
-940 -623 0
940 623 0
-941 -626 0
941 626 0
-942 -629 0
942 629 0
-943 -632 0
943 632 0
-944 -634 0
944 634 0
-945 -637 0
945 637 0
-946 -640 0
946 640 0
-947 -642 0
947 642 0
-948 -645 0
948 645 0
-949 -648 0
949 648 0
-950 -651 0
950 651 0
-951 -654 0
951 654 0
-952 -657 0
952 657 0
-953 -660 0
953 660 0
-954 -663 0
954 663 0
-955 -666 0
955 666 0
-956 -669 0
956 669 0
-957 -672 0
957 672 0
-958 -675 0
958 675 0
-959 -678 0
959 678 0
-960 -681 0
960 681 0
-961 -684 0
961 684 0
-962 -687 0
962 687 0
-963 -690 0
963 690 0
-964 -693 0
964 693 0
-965 -696 0
965 696 0
697 0
